n = 14;
m = 22;

prefs = array2d(1..22, 0..1,
        [| 1,3 | 1,5 | 1,8 | 2,5 | 2,9 | 3,4 | 3,5 | 4,1 | 4,5  |  4,10 |
           5,6 | 5,1 | 6,1 | 6,9 | 7,3 | 7,8 | 8,9 | 8,7 | 9,10 | 10,11 | 12,13 | 13, 14 |]);

crTempEdges = [| 1, 2 | 
                 3, 2 |
                 2, 4 |
                 4, 5 | 
                 6, 7 |
                 7, 9 |
                 8, 9 |
                 9, 10 |
                10, 11 |
                11, 15 | 
                12, 15 |
                15, 18 |
                15, 19 |

|];
